RST07
Position Depot: Center
Horizon for Depot: Small
Position of customers: Random
Distribution of the demand: Large
Width of time windows: Tight
Distribution of the service: Large

VEHICLE 
NUMBER 	 CAPACITY 
 16 	 	 182 
 
CUSTOMER
CUST NO. 	 XCOORD.  	 YCOORD. 	 DEMAND 	 READY TIME 	 DUE DATE 	 SERVICE TIME 
 0 	 	 500 	 	 500 	 	 0 	 	 0 	 	 2139 	 	 0 
  1 	 	 693 	 	 31 	 	 55 	 	 375 	 	 557 	 	 104 
  2 	 	 178 	 	 702 	 	 77 	 	 231 	 	 418 	 	 156 
  3 	 	 742 	 	 752 	 	 55 	 	 528 	 	 671 	 	 151 
  4 	 	 875 	 	 230 	 	 97 	 	 1932 	 	 2124 	 	 181 
  5 	 	 286 	 	 124 	 	 65 	 	 1152 	 	 1208 	 	 137 
  6 	 	 648 	 	 538 	 	 98 	 	 191 	 	 314 	 	 107 
  7 	 	 94 	 	 379 	 	 46 	 	 379 	 	 558 	 	 157 
  8 	 	 281 	 	 979 	 	 91 	 	 515 	 	 579 	 	 170 
  9 	 	 279 	 	 346 	 	 45 	 	 943 	 	 1064 	 	 200 
  10 	 	 501 	 	 270 	 	 98 	 	 222 	 	 330 	 	 152 
  11 	 	 389 	 	 481 	 	 21 	 	 1607 	 	 1774 	 	 155 
  12 	 	 226 	 	 467 	 	 100 	 	 2067 	 	 2137 	 	 194 
  13 	 	 519 	 	 404 	 	 49 	 	 721 	 	 822 	 	 179 
  14 	 	 136 	 	 38 	 	 81 	 	 502 	 	 668 	 	 144 
  15 	 	 360 	 	 869 	 	 88 	 	 327 	 	 441 	 	 130 
  16 	 	 327 	 	 317 	 	 3 	 	 964 	 	 1125 	 	 158 
  17 	 	 271 	 	 667 	 	 44 	 	 313 	 	 366 	 	 134 
  18 	 	 955 	 	 435 	 	 90 	 	 578 	 	 687 	 	 176 
  19 	 	 852 	 	 908 	 	 48 	 	 1551 	 	 1602 	 	 130 
  20 	 	 558 	 	 727 	 	 93 	 	 664 	 	 770 	 	 185 
  21 	 	 122 	 	 981 	 	 25 	 	 573 	 	 672 	 	 193 
  22 	 	 644 	 	 980 	 	 30 	 	 396 	 	 551 	 	 193 
  23 	 	 350 	 	 147 	 	 93 	 	 252 	 	 421 	 	 181 
  24 	 	 850 	 	 611 	 	 28 	 	 345 	 	 403 	 	 191 
  25 	 	 779 	 	 102 	 	 5 	 	 698 	 	 838 	 	 108 
  26 	 	 385 	 	 585 	 	 77 	 	 822 	 	 953 	 	 150 
  27 	 	 298 	 	 175 	 	 77 	 	 1131 	 	 1260 	 	 135 
  28 	 	 596 	 	 902 	 	 47 	 	 882 	 	 988 	 	 115 
  29 	 	 753 	 	 971 	 	 49 	 	 511 	 	 653 	 	 136 
  30 	 	 360 	 	 611 	 	 68 	 	 1427 	 	 1490 	 	 167 
  31 	 	 58 	 	 92 	 	 56 	 	 1296 	 	 1480 	 	 145 
  32 	 	 553 	 	 246 	 	 40 	 	 2016 	 	 2139 	 	 149 
  33 	 	 529 	 	 558 	 	 42 	 	 639 	 	 727 	 	 168 
  34 	 	 102 	 	 925 	 	 85 	 	 568 	 	 674 	 	 189 
  35 	 	 309 	 	 445 	 	 55 	 	 990 	 	 1168 	 	 180 
  36 	 	 891 	 	 639 	 	 86 	 	 1433 	 	 1562 	 	 156 
  37 	 	 458 	 	 57 	 	 59 	 	 1655 	 	 1705 	 	 173 
  38 	 	 964 	 	 126 	 	 39 	 	 2004 	 	 2100 	 	 182 
  39 	 	 74 	 	 115 	 	 31 	 	 1404 	 	 1568 	 	 146 
  40 	 	 678 	 	 976 	 	 38 	 	 554 	 	 675 	 	 198 
  41 	 	 686 	 	 104 	 	 94 	 	 440 	 	 615 	 	 142 
  42 	 	 560 	 	 237 	 	 46 	 	 232 	 	 296 	 	 115 
  43 	 	 188 	 	 508 	 	 59 	 	 2045 	 	 2118 	 	 151 
  44 	 	 62 	 	 587 	 	 94 	 	 580 	 	 648 	 	 138 
  45 	 	 11 	 	 645 	 	 77 	 	 1823 	 	 1935 	 	 178 
  46 	 	 803 	 	 984 	 	 95 	 	 892 	 	 997 	 	 191 
  47 	 	 133 	 	 567 	 	 75 	 	 1620 	 	 1703 	 	 174 
  48 	 	 867 	 	 711 	 	 20 	 	 571 	 	 711 	 	 186 
  49 	 	 868 	 	 863 	 	 8 	 	 1494 	 	 1551 	 	 194 
  50 	 	 945 	 	 698 	 	 86 	 	 1949 	 	 2114 	 	 111 
 